p tw 210 39901 2 
1 3 
1 4 
1 5 
1 6 
1 7 
1 8 
1 9 
1 10 
1 11 
1 12 
1 13 
1 14 
1 15 
1 16 
1 17 
1 18 
1 19 
1 20 
1 21 
1 22 
1 23 
1 24 
1 25 
1 26 
1 27 
1 28 
1 29 
1 30 
1 31 
1 32 
1 33 
1 34 
1 35 
1 36 
1 37 
1 38 
1 39 
2 3 
2 4 
2 5 
2 6 
2 7 
2 8 
2 9 
2 10 
2 11 
2 12 
2 13 
2 14 
2 15 
2 16 
2 17 
2 18 
2 19 
2 20 
2 21 
2 40 
2 41 
2 42 
2 43 
2 44 
2 45 
2 46 
2 47 
2 48 
2 49 
2 50 
2 51 
2 52 
2 53 
2 54 
2 55 
2 56 
2 57 
3 4 
3 5 
3 6 
3 7 
3 8 
3 9 
3 10 
3 11 
3 12 
3 13 
3 14 
3 15 
3 16 
3 17 
3 18 
3 19 
3 20 
3 22 
3 40 
3 58 
3 59 
3 60 
3 61 
3 62 
3 63 
3 64 
3 65 
3 66 
3 67 
3 68 
3 69 
3 70 
3 71 
3 72 
3 73 
3 74 
4 5 
4 6 
4 7 
4 8 
4 9 
4 10 
4 11 
4 12 
4 13 
4 14 
4 15 
4 16 
4 17 
4 18 
4 19 
4 20 
4 23 
4 41 
4 58 
4 75 
4 76 
4 77 
4 78 
4 79 
4 80 
4 81 
4 82 
4 83 
4 84 
4 85 
4 86 
4 87 
4 88 
4 89 
4 90 
5 6 
5 7 
5 8 
5 9 
5 10 
5 11 
5 12 
5 13 
5 14 
5 15 
5 16 
5 17 
5 18 
5 19 
5 20 
5 24 
5 42 
5 59 
5 75 
5 91 
5 92 
5 93 
5 94 
5 95 
5 96 
5 97 
5 98 
5 99 
5 100 
5 101 
5 102 
5 103 
5 104 
5 105 
6 7 
6 8 
6 9 
6 10 
6 11 
6 12 
6 13 
6 14 
6 15 
6 16 
6 17 
6 18 
6 19 
6 20 
6 25 
6 43 
6 60 
6 76 
6 91 
6 106 
6 107 
6 108 
6 109 
6 110 
6 111 
6 112 
6 113 
6 114 
6 115 
6 116 
6 117 
6 118 
6 119 
7 8 
7 9 
7 10 
7 11 
7 12 
7 13 
7 14 
7 15 
7 16 
7 17 
7 18 
7 19 
7 20 
7 26 
7 44 
7 61 
7 77 
7 92 
7 106 
7 120 
7 121 
7 122 
7 123 
7 124 
7 125 
7 126 
7 127 
7 128 
7 129 
7 130 
7 131 
7 132 
8 9 
8 10 
8 11 
8 12 
8 13 
8 14 
8 15 
8 16 
8 17 
8 18 
8 19 
8 20 
8 27 
8 45 
8 62 
8 78 
8 93 
8 107 
8 120 
8 133 
8 134 
8 135 
8 136 
8 137 
8 138 
8 139 
8 140 
8 141 
8 142 
8 143 
8 144 
9 10 
9 11 
9 12 
9 13 
9 14 
9 15 
9 16 
9 17 
9 18 
9 19 
9 20 
9 28 
9 46 
9 63 
9 79 
9 94 
9 108 
9 121 
9 133 
9 145 
9 146 
9 147 
9 148 
9 149 
9 150 
9 151 
9 152 
9 153 
9 154 
9 155 
10 11 
10 12 
10 13 
10 14 
10 15 
10 16 
10 17 
10 18 
10 19 
10 20 
10 29 
10 47 
10 64 
10 80 
10 95 
10 109 
10 122 
10 134 
10 145 
10 156 
10 157 
10 158 
10 159 
10 160 
10 161 
10 162 
10 163 
10 164 
10 165 
11 12 
11 13 
11 14 
11 15 
11 16 
11 17 
11 18 
11 19 
11 20 
11 30 
11 48 
11 65 
11 81 
11 96 
11 110 
11 123 
11 135 
11 146 
11 156 
11 166 
11 167 
11 168 
11 169 
11 170 
11 171 
11 172 
11 173 
11 174 
12 13 
12 14 
12 15 
12 16 
12 17 
12 18 
12 19 
12 20 
12 31 
12 49 
12 66 
12 82 
12 97 
12 111 
12 124 
12 136 
12 147 
12 157 
12 166 
12 175 
12 176 
12 177 
12 178 
12 179 
12 180 
12 181 
12 182 
13 14 
13 15 
13 16 
13 17 
13 18 
13 19 
13 20 
13 32 
13 50 
13 67 
13 83 
13 98 
13 112 
13 125 
13 137 
13 148 
13 158 
13 167 
13 175 
13 183 
13 184 
13 185 
13 186 
13 187 
13 188 
13 189 
14 15 
14 16 
14 17 
14 18 
14 19 
14 20 
14 33 
14 51 
14 68 
14 84 
14 99 
14 113 
14 126 
14 138 
14 149 
14 159 
14 168 
14 176 
14 183 
14 190 
14 191 
14 192 
14 193 
14 194 
14 195 
15 16 
15 17 
15 18 
15 19 
15 20 
15 34 
15 52 
15 69 
15 85 
15 100 
15 114 
15 127 
15 139 
15 150 
15 160 
15 169 
15 177 
15 184 
15 190 
15 196 
15 197 
15 198 
15 199 
15 200 
16 17 
16 18 
16 19 
16 20 
16 35 
16 53 
16 70 
16 86 
16 101 
16 115 
16 128 
16 140 
16 151 
16 161 
16 170 
16 178 
16 185 
16 191 
16 196 
16 201 
16 202 
16 203 
16 204 
17 18 
17 19 
17 20 
17 36 
17 54 
17 71 
17 87 
17 102 
17 116 
17 129 
17 141 
17 152 
17 162 
17 171 
17 179 
17 186 
17 192 
17 197 
17 201 
17 205 
17 206 
17 207 
18 19 
18 20 
18 37 
18 55 
18 72 
18 88 
18 103 
18 117 
18 130 
18 142 
18 153 
18 163 
18 172 
18 180 
18 187 
18 193 
18 198 
18 202 
18 205 
18 208 
18 209 
19 20 
19 38 
19 56 
19 73 
19 89 
19 104 
19 118 
19 131 
19 143 
19 154 
19 164 
19 173 
19 181 
19 188 
19 194 
19 199 
19 203 
19 206 
19 208 
19 210 
20 39 
20 57 
20 74 
20 90 
20 105 
20 119 
20 132 
20 144 
20 155 
20 165 
20 174 
20 182 
20 189 
20 195 
20 200 
20 204 
20 207 
20 209 
20 210 
21 22 
21 23 
21 24 
21 25 
21 26 
21 27 
21 28 
21 29 
21 30 
21 31 
21 32 
21 33 
21 34 
21 35 
21 36 
21 37 
21 38 
21 39 
21 40 
21 41 
21 42 
21 43 
21 44 
21 45 
21 46 
21 47 
21 48 
21 49 
21 50 
21 51 
21 52 
21 53 
21 54 
21 55 
21 56 
21 57 
22 23 
22 24 
22 25 
22 26 
22 27 
22 28 
22 29 
22 30 
22 31 
22 32 
22 33 
22 34 
22 35 
22 36 
22 37 
22 38 
22 39 
22 40 
22 58 
22 59 
22 60 
22 61 
22 62 
22 63 
22 64 
22 65 
22 66 
22 67 
22 68 
22 69 
22 70 
22 71 
22 72 
22 73 
22 74 
23 24 
23 25 
23 26 
23 27 
23 28 
23 29 
23 30 
23 31 
23 32 
23 33 
23 34 
23 35 
23 36 
23 37 
23 38 
23 39 
23 41 
23 58 
23 75 
23 76 
23 77 
23 78 
23 79 
23 80 
23 81 
23 82 
23 83 
23 84 
23 85 
23 86 
23 87 
23 88 
23 89 
23 90 
24 25 
24 26 
24 27 
24 28 
24 29 
24 30 
24 31 
24 32 
24 33 
24 34 
24 35 
24 36 
24 37 
24 38 
24 39 
24 42 
24 59 
24 75 
24 91 
24 92 
24 93 
24 94 
24 95 
24 96 
24 97 
24 98 
24 99 
24 100 
24 101 
24 102 
24 103 
24 104 
24 105 
25 26 
25 27 
25 28 
25 29 
25 30 
25 31 
25 32 
25 33 
25 34 
25 35 
25 36 
25 37 
25 38 
25 39 
25 43 
25 60 
25 76 
25 91 
25 106 
25 107 
25 108 
25 109 
25 110 
25 111 
25 112 
25 113 
25 114 
25 115 
25 116 
25 117 
25 118 
25 119 
26 27 
26 28 
26 29 
26 30 
26 31 
26 32 
26 33 
26 34 
26 35 
26 36 
26 37 
26 38 
26 39 
26 44 
26 61 
26 77 
26 92 
26 106 
26 120 
26 121 
26 122 
26 123 
26 124 
26 125 
26 126 
26 127 
26 128 
26 129 
26 130 
26 131 
26 132 
27 28 
27 29 
27 30 
27 31 
27 32 
27 33 
27 34 
27 35 
27 36 
27 37 
27 38 
27 39 
27 45 
27 62 
27 78 
27 93 
27 107 
27 120 
27 133 
27 134 
27 135 
27 136 
27 137 
27 138 
27 139 
27 140 
27 141 
27 142 
27 143 
27 144 
28 29 
28 30 
28 31 
28 32 
28 33 
28 34 
28 35 
28 36 
28 37 
28 38 
28 39 
28 46 
28 63 
28 79 
28 94 
28 108 
28 121 
28 133 
28 145 
28 146 
28 147 
28 148 
28 149 
28 150 
28 151 
28 152 
28 153 
28 154 
28 155 
29 30 
29 31 
29 32 
29 33 
29 34 
29 35 
29 36 
29 37 
29 38 
29 39 
29 47 
29 64 
29 80 
29 95 
29 109 
29 122 
29 134 
29 145 
29 156 
29 157 
29 158 
29 159 
29 160 
29 161 
29 162 
29 163 
29 164 
29 165 
30 31 
30 32 
30 33 
30 34 
30 35 
30 36 
30 37 
30 38 
30 39 
30 48 
30 65 
30 81 
30 96 
30 110 
30 123 
30 135 
30 146 
30 156 
30 166 
30 167 
30 168 
30 169 
30 170 
30 171 
30 172 
30 173 
30 174 
31 32 
31 33 
31 34 
31 35 
31 36 
31 37 
31 38 
31 39 
31 49 
31 66 
31 82 
31 97 
31 111 
31 124 
31 136 
31 147 
31 157 
31 166 
31 175 
31 176 
31 177 
31 178 
31 179 
31 180 
31 181 
31 182 
32 33 
32 34 
32 35 
32 36 
32 37 
32 38 
32 39 
32 50 
32 67 
32 83 
32 98 
32 112 
32 125 
32 137 
32 148 
32 158 
32 167 
32 175 
32 183 
32 184 
32 185 
32 186 
32 187 
32 188 
32 189 
33 34 
33 35 
33 36 
33 37 
33 38 
33 39 
33 51 
33 68 
33 84 
33 99 
33 113 
33 126 
33 138 
33 149 
33 159 
33 168 
33 176 
33 183 
33 190 
33 191 
33 192 
33 193 
33 194 
33 195 
34 35 
34 36 
34 37 
34 38 
34 39 
34 52 
34 69 
34 85 
34 100 
34 114 
34 127 
34 139 
34 150 
34 160 
34 169 
34 177 
34 184 
34 190 
34 196 
34 197 
34 198 
34 199 
34 200 
35 36 
35 37 
35 38 
35 39 
35 53 
35 70 
35 86 
35 101 
35 115 
35 128 
35 140 
35 151 
35 161 
35 170 
35 178 
35 185 
35 191 
35 196 
35 201 
35 202 
35 203 
35 204 
36 37 
36 38 
36 39 
36 54 
36 71 
36 87 
36 102 
36 116 
36 129 
36 141 
36 152 
36 162 
36 171 
36 179 
36 186 
36 192 
36 197 
36 201 
36 205 
36 206 
36 207 
37 38 
37 39 
37 55 
37 72 
37 88 
37 103 
37 117 
37 130 
37 142 
37 153 
37 163 
37 172 
37 180 
37 187 
37 193 
37 198 
37 202 
37 205 
37 208 
37 209 
38 39 
38 56 
38 73 
38 89 
38 104 
38 118 
38 131 
38 143 
38 154 
38 164 
38 173 
38 181 
38 188 
38 194 
38 199 
38 203 
38 206 
38 208 
38 210 
39 57 
39 74 
39 90 
39 105 
39 119 
39 132 
39 144 
39 155 
39 165 
39 174 
39 182 
39 189 
39 195 
39 200 
39 204 
39 207 
39 209 
39 210 
40 41 
40 42 
40 43 
40 44 
40 45 
40 46 
40 47 
40 48 
40 49 
40 50 
40 51 
40 52 
40 53 
40 54 
40 55 
40 56 
40 57 
40 58 
40 59 
40 60 
40 61 
40 62 
40 63 
40 64 
40 65 
40 66 
40 67 
40 68 
40 69 
40 70 
40 71 
40 72 
40 73 
40 74 
41 42 
41 43 
41 44 
41 45 
41 46 
41 47 
41 48 
41 49 
41 50 
41 51 
41 52 
41 53 
41 54 
41 55 
41 56 
41 57 
41 58 
41 75 
41 76 
41 77 
41 78 
41 79 
41 80 
41 81 
41 82 
41 83 
41 84 
41 85 
41 86 
41 87 
41 88 
41 89 
41 90 
42 43 
42 44 
42 45 
42 46 
42 47 
42 48 
42 49 
42 50 
42 51 
42 52 
42 53 
42 54 
42 55 
42 56 
42 57 
42 59 
42 75 
42 91 
42 92 
42 93 
42 94 
42 95 
42 96 
42 97 
42 98 
42 99 
42 100 
42 101 
42 102 
42 103 
42 104 
42 105 
43 44 
43 45 
43 46 
43 47 
43 48 
43 49 
43 50 
43 51 
43 52 
43 53 
43 54 
43 55 
43 56 
43 57 
43 60 
43 76 
43 91 
43 106 
43 107 
43 108 
43 109 
43 110 
43 111 
43 112 
43 113 
43 114 
43 115 
43 116 
43 117 
43 118 
43 119 
44 45 
44 46 
44 47 
44 48 
44 49 
44 50 
44 51 
44 52 
44 53 
44 54 
44 55 
44 56 
44 57 
44 61 
44 77 
44 92 
44 106 
44 120 
44 121 
44 122 
44 123 
44 124 
44 125 
44 126 
44 127 
44 128 
44 129 
44 130 
44 131 
44 132 
45 46 
45 47 
45 48 
45 49 
45 50 
45 51 
45 52 
45 53 
45 54 
45 55 
45 56 
45 57 
45 62 
45 78 
45 93 
45 107 
45 120 
45 133 
45 134 
45 135 
45 136 
45 137 
45 138 
45 139 
45 140 
45 141 
45 142 
45 143 
45 144 
46 47 
46 48 
46 49 
46 50 
46 51 
46 52 
46 53 
46 54 
46 55 
46 56 
46 57 
46 63 
46 79 
46 94 
46 108 
46 121 
46 133 
46 145 
46 146 
46 147 
46 148 
46 149 
46 150 
46 151 
46 152 
46 153 
46 154 
46 155 
47 48 
47 49 
47 50 
47 51 
47 52 
47 53 
47 54 
47 55 
47 56 
47 57 
47 64 
47 80 
47 95 
47 109 
47 122 
47 134 
47 145 
47 156 
47 157 
47 158 
47 159 
47 160 
47 161 
47 162 
47 163 
47 164 
47 165 
48 49 
48 50 
48 51 
48 52 
48 53 
48 54 
48 55 
48 56 
48 57 
48 65 
48 81 
48 96 
48 110 
48 123 
48 135 
48 146 
48 156 
48 166 
48 167 
48 168 
48 169 
48 170 
48 171 
48 172 
48 173 
48 174 
49 50 
49 51 
49 52 
49 53 
49 54 
49 55 
49 56 
49 57 
49 66 
49 82 
49 97 
49 111 
49 124 
49 136 
49 147 
49 157 
49 166 
49 175 
49 176 
49 177 
49 178 
49 179 
49 180 
49 181 
49 182 
50 51 
50 52 
50 53 
50 54 
50 55 
50 56 
50 57 
50 67 
50 83 
50 98 
50 112 
50 125 
50 137 
50 148 
50 158 
50 167 
50 175 
50 183 
50 184 
50 185 
50 186 
50 187 
50 188 
50 189 
51 52 
51 53 
51 54 
51 55 
51 56 
51 57 
51 68 
51 84 
51 99 
51 113 
51 126 
51 138 
51 149 
51 159 
51 168 
51 176 
51 183 
51 190 
51 191 
51 192 
51 193 
51 194 
51 195 
52 53 
52 54 
52 55 
52 56 
52 57 
52 69 
52 85 
52 100 
52 114 
52 127 
52 139 
52 150 
52 160 
52 169 
52 177 
52 184 
52 190 
52 196 
52 197 
52 198 
52 199 
52 200 
53 54 
53 55 
53 56 
53 57 
53 70 
53 86 
53 101 
53 115 
53 128 
53 140 
53 151 
53 161 
53 170 
53 178 
53 185 
53 191 
53 196 
53 201 
53 202 
53 203 
53 204 
54 55 
54 56 
54 57 
54 71 
54 87 
54 102 
54 116 
54 129 
54 141 
54 152 
54 162 
54 171 
54 179 
54 186 
54 192 
54 197 
54 201 
54 205 
54 206 
54 207 
55 56 
55 57 
55 72 
55 88 
55 103 
55 117 
55 130 
55 142 
55 153 
55 163 
55 172 
55 180 
55 187 
55 193 
55 198 
55 202 
55 205 
55 208 
55 209 
56 57 
56 73 
56 89 
56 104 
56 118 
56 131 
56 143 
56 154 
56 164 
56 173 
56 181 
56 188 
56 194 
56 199 
56 203 
56 206 
56 208 
56 210 
57 74 
57 90 
57 105 
57 119 
57 132 
57 144 
57 155 
57 165 
57 174 
57 182 
57 189 
57 195 
57 200 
57 204 
57 207 
57 209 
57 210 
58 59 
58 60 
58 61 
58 62 
58 63 
58 64 
58 65 
58 66 
58 67 
58 68 
58 69 
58 70 
58 71 
58 72 
58 73 
58 74 
58 75 
58 76 
58 77 
58 78 
58 79 
58 80 
58 81 
58 82 
58 83 
58 84 
58 85 
58 86 
58 87 
58 88 
58 89 
58 90 
59 60 
59 61 
59 62 
59 63 
59 64 
59 65 
59 66 
59 67 
59 68 
59 69 
59 70 
59 71 
59 72 
59 73 
59 74 
59 75 
59 91 
59 92 
59 93 
59 94 
59 95 
59 96 
59 97 
59 98 
59 99 
59 100 
59 101 
59 102 
59 103 
59 104 
59 105 
60 61 
60 62 
60 63 
60 64 
60 65 
60 66 
60 67 
60 68 
60 69 
60 70 
60 71 
60 72 
60 73 
60 74 
60 76 
60 91 
60 106 
60 107 
60 108 
60 109 
60 110 
60 111 
60 112 
60 113 
60 114 
60 115 
60 116 
60 117 
60 118 
60 119 
61 62 
61 63 
61 64 
61 65 
61 66 
61 67 
61 68 
61 69 
61 70 
61 71 
61 72 
61 73 
61 74 
61 77 
61 92 
61 106 
61 120 
61 121 
61 122 
61 123 
61 124 
61 125 
61 126 
61 127 
61 128 
61 129 
61 130 
61 131 
61 132 
62 63 
62 64 
62 65 
62 66 
62 67 
62 68 
62 69 
62 70 
62 71 
62 72 
62 73 
62 74 
62 78 
62 93 
62 107 
62 120 
62 133 
62 134 
62 135 
62 136 
62 137 
62 138 
62 139 
62 140 
62 141 
62 142 
62 143 
62 144 
63 64 
63 65 
63 66 
63 67 
63 68 
63 69 
63 70 
63 71 
63 72 
63 73 
63 74 
63 79 
63 94 
63 108 
63 121 
63 133 
63 145 
63 146 
63 147 
63 148 
63 149 
63 150 
63 151 
63 152 
63 153 
63 154 
63 155 
64 65 
64 66 
64 67 
64 68 
64 69 
64 70 
64 71 
64 72 
64 73 
64 74 
64 80 
64 95 
64 109 
64 122 
64 134 
64 145 
64 156 
64 157 
64 158 
64 159 
64 160 
64 161 
64 162 
64 163 
64 164 
64 165 
65 66 
65 67 
65 68 
65 69 
65 70 
65 71 
65 72 
65 73 
65 74 
65 81 
65 96 
65 110 
65 123 
65 135 
65 146 
65 156 
65 166 
65 167 
65 168 
65 169 
65 170 
65 171 
65 172 
65 173 
65 174 
66 67 
66 68 
66 69 
66 70 
66 71 
66 72 
66 73 
66 74 
66 82 
66 97 
66 111 
66 124 
66 136 
66 147 
66 157 
66 166 
66 175 
66 176 
66 177 
66 178 
66 179 
66 180 
66 181 
66 182 
67 68 
67 69 
67 70 
67 71 
67 72 
67 73 
67 74 
67 83 
67 98 
67 112 
67 125 
67 137 
67 148 
67 158 
67 167 
67 175 
67 183 
67 184 
67 185 
67 186 
67 187 
67 188 
67 189 
68 69 
68 70 
68 71 
68 72 
68 73 
68 74 
68 84 
68 99 
68 113 
68 126 
68 138 
68 149 
68 159 
68 168 
68 176 
68 183 
68 190 
68 191 
68 192 
68 193 
68 194 
68 195 
69 70 
69 71 
69 72 
69 73 
69 74 
69 85 
69 100 
69 114 
69 127 
69 139 
69 150 
69 160 
69 169 
69 177 
69 184 
69 190 
69 196 
69 197 
69 198 
69 199 
69 200 
70 71 
70 72 
70 73 
70 74 
70 86 
70 101 
70 115 
70 128 
70 140 
70 151 
70 161 
70 170 
70 178 
70 185 
70 191 
70 196 
70 201 
70 202 
70 203 
70 204 
71 72 
71 73 
71 74 
71 87 
71 102 
71 116 
71 129 
71 141 
71 152 
71 162 
71 171 
71 179 
71 186 
71 192 
71 197 
71 201 
71 205 
71 206 
71 207 
72 73 
72 74 
72 88 
72 103 
72 117 
72 130 
72 142 
72 153 
72 163 
72 172 
72 180 
72 187 
72 193 
72 198 
72 202 
72 205 
72 208 
72 209 
73 74 
73 89 
73 104 
73 118 
73 131 
73 143 
73 154 
73 164 
73 173 
73 181 
73 188 
73 194 
73 199 
73 203 
73 206 
73 208 
73 210 
74 90 
74 105 
74 119 
74 132 
74 144 
74 155 
74 165 
74 174 
74 182 
74 189 
74 195 
74 200 
74 204 
74 207 
74 209 
74 210 
75 76 
75 77 
75 78 
75 79 
75 80 
75 81 
75 82 
75 83 
75 84 
75 85 
75 86 
75 87 
75 88 
75 89 
75 90 
75 91 
75 92 
75 93 
75 94 
75 95 
75 96 
75 97 
75 98 
75 99 
75 100 
75 101 
75 102 
75 103 
75 104 
75 105 
76 77 
76 78 
76 79 
76 80 
76 81 
76 82 
76 83 
76 84 
76 85 
76 86 
76 87 
76 88 
76 89 
76 90 
76 91 
76 106 
76 107 
76 108 
76 109 
76 110 
76 111 
76 112 
76 113 
76 114 
76 115 
76 116 
76 117 
76 118 
76 119 
77 78 
77 79 
77 80 
77 81 
77 82 
77 83 
77 84 
77 85 
77 86 
77 87 
77 88 
77 89 
77 90 
77 92 
77 106 
77 120 
77 121 
77 122 
77 123 
77 124 
77 125 
77 126 
77 127 
77 128 
77 129 
77 130 
77 131 
77 132 
78 79 
78 80 
78 81 
78 82 
78 83 
78 84 
78 85 
78 86 
78 87 
78 88 
78 89 
78 90 
78 93 
78 107 
78 120 
78 133 
78 134 
78 135 
78 136 
78 137 
78 138 
78 139 
78 140 
78 141 
78 142 
78 143 
78 144 
79 80 
79 81 
79 82 
79 83 
79 84 
79 85 
79 86 
79 87 
79 88 
79 89 
79 90 
79 94 
79 108 
79 121 
79 133 
79 145 
79 146 
79 147 
79 148 
79 149 
79 150 
79 151 
79 152 
79 153 
79 154 
79 155 
80 81 
80 82 
80 83 
80 84 
80 85 
80 86 
80 87 
80 88 
80 89 
80 90 
80 95 
80 109 
80 122 
80 134 
80 145 
80 156 
80 157 
80 158 
80 159 
80 160 
80 161 
80 162 
80 163 
80 164 
80 165 
81 82 
81 83 
81 84 
81 85 
81 86 
81 87 
81 88 
81 89 
81 90 
81 96 
81 110 
81 123 
81 135 
81 146 
81 156 
81 166 
81 167 
81 168 
81 169 
81 170 
81 171 
81 172 
81 173 
81 174 
82 83 
82 84 
82 85 
82 86 
82 87 
82 88 
82 89 
82 90 
82 97 
82 111 
82 124 
82 136 
82 147 
82 157 
82 166 
82 175 
82 176 
82 177 
82 178 
82 179 
82 180 
82 181 
82 182 
83 84 
83 85 
83 86 
83 87 
83 88 
83 89 
83 90 
83 98 
83 112 
83 125 
83 137 
83 148 
83 158 
83 167 
83 175 
83 183 
83 184 
83 185 
83 186 
83 187 
83 188 
83 189 
84 85 
84 86 
84 87 
84 88 
84 89 
84 90 
84 99 
84 113 
84 126 
84 138 
84 149 
84 159 
84 168 
84 176 
84 183 
84 190 
84 191 
84 192 
84 193 
84 194 
84 195 
85 86 
85 87 
85 88 
85 89 
85 90 
85 100 
85 114 
85 127 
85 139 
85 150 
85 160 
85 169 
85 177 
85 184 
85 190 
85 196 
85 197 
85 198 
85 199 
85 200 
86 87 
86 88 
86 89 
86 90 
86 101 
86 115 
86 128 
86 140 
86 151 
86 161 
86 170 
86 178 
86 185 
86 191 
86 196 
86 201 
86 202 
86 203 
86 204 
87 88 
87 89 
87 90 
87 102 
87 116 
87 129 
87 141 
87 152 
87 162 
87 171 
87 179 
87 186 
87 192 
87 197 
87 201 
87 205 
87 206 
87 207 
88 89 
88 90 
88 103 
88 117 
88 130 
88 142 
88 153 
88 163 
88 172 
88 180 
88 187 
88 193 
88 198 
88 202 
88 205 
88 208 
88 209 
89 90 
89 104 
89 118 
89 131 
89 143 
89 154 
89 164 
89 173 
89 181 
89 188 
89 194 
89 199 
89 203 
89 206 
89 208 
89 210 
90 105 
90 119 
90 132 
90 144 
90 155 
90 165 
90 174 
90 182 
90 189 
90 195 
90 200 
90 204 
90 207 
90 209 
90 210 
91 92 
91 93 
91 94 
91 95 
91 96 
91 97 
91 98 
91 99 
91 100 
91 101 
91 102 
91 103 
91 104 
91 105 
91 106 
91 107 
91 108 
91 109 
91 110 
91 111 
91 112 
91 113 
91 114 
91 115 
91 116 
91 117 
91 118 
91 119 
92 93 
92 94 
92 95 
92 96 
92 97 
92 98 
92 99 
92 100 
92 101 
92 102 
92 103 
92 104 
92 105 
92 106 
92 120 
92 121 
92 122 
92 123 
92 124 
92 125 
92 126 
92 127 
92 128 
92 129 
92 130 
92 131 
92 132 
93 94 
93 95 
93 96 
93 97 
93 98 
93 99 
93 100 
93 101 
93 102 
93 103 
93 104 
93 105 
93 107 
93 120 
93 133 
93 134 
93 135 
93 136 
93 137 
93 138 
93 139 
93 140 
93 141 
93 142 
93 143 
93 144 
94 95 
94 96 
94 97 
94 98 
94 99 
94 100 
94 101 
94 102 
94 103 
94 104 
94 105 
94 108 
94 121 
94 133 
94 145 
94 146 
94 147 
94 148 
94 149 
94 150 
94 151 
94 152 
94 153 
94 154 
94 155 
95 96 
95 97 
95 98 
95 99 
95 100 
95 101 
95 102 
95 103 
95 104 
95 105 
95 109 
95 122 
95 134 
95 145 
95 156 
95 157 
95 158 
95 159 
95 160 
95 161 
95 162 
95 163 
95 164 
95 165 
96 97 
96 98 
96 99 
96 100 
96 101 
96 102 
96 103 
96 104 
96 105 
96 110 
96 123 
96 135 
96 146 
96 156 
96 166 
96 167 
96 168 
96 169 
96 170 
96 171 
96 172 
96 173 
96 174 
97 98 
97 99 
97 100 
97 101 
97 102 
97 103 
97 104 
97 105 
97 111 
97 124 
97 136 
97 147 
97 157 
97 166 
97 175 
97 176 
97 177 
97 178 
97 179 
97 180 
97 181 
97 182 
98 99 
98 100 
98 101 
98 102 
98 103 
98 104 
98 105 
98 112 
98 125 
98 137 
98 148 
98 158 
98 167 
98 175 
98 183 
98 184 
98 185 
98 186 
98 187 
98 188 
98 189 
99 100 
99 101 
99 102 
99 103 
99 104 
99 105 
99 113 
99 126 
99 138 
99 149 
99 159 
99 168 
99 176 
99 183 
99 190 
99 191 
99 192 
99 193 
99 194 
99 195 
100 101 
100 102 
100 103 
100 104 
100 105 
100 114 
100 127 
100 139 
100 150 
100 160 
100 169 
100 177 
100 184 
100 190 
100 196 
100 197 
100 198 
100 199 
100 200 
101 102 
101 103 
101 104 
101 105 
101 115 
101 128 
101 140 
101 151 
101 161 
101 170 
101 178 
101 185 
101 191 
101 196 
101 201 
101 202 
101 203 
101 204 
102 103 
102 104 
102 105 
102 116 
102 129 
102 141 
102 152 
102 162 
102 171 
102 179 
102 186 
102 192 
102 197 
102 201 
102 205 
102 206 
102 207 
103 104 
103 105 
103 117 
103 130 
103 142 
103 153 
103 163 
103 172 
103 180 
103 187 
103 193 
103 198 
103 202 
103 205 
103 208 
103 209 
104 105 
104 118 
104 131 
104 143 
104 154 
104 164 
104 173 
104 181 
104 188 
104 194 
104 199 
104 203 
104 206 
104 208 
104 210 
105 119 
105 132 
105 144 
105 155 
105 165 
105 174 
105 182 
105 189 
105 195 
105 200 
105 204 
105 207 
105 209 
105 210 
106 107 
106 108 
106 109 
106 110 
106 111 
106 112 
106 113 
106 114 
106 115 
106 116 
106 117 
106 118 
106 119 
106 120 
106 121 
106 122 
106 123 
106 124 
106 125 
106 126 
106 127 
106 128 
106 129 
106 130 
106 131 
106 132 
107 108 
107 109 
107 110 
107 111 
107 112 
107 113 
107 114 
107 115 
107 116 
107 117 
107 118 
107 119 
107 120 
107 133 
107 134 
107 135 
107 136 
107 137 
107 138 
107 139 
107 140 
107 141 
107 142 
107 143 
107 144 
108 109 
108 110 
108 111 
108 112 
108 113 
108 114 
108 115 
108 116 
108 117 
108 118 
108 119 
108 121 
108 133 
108 145 
108 146 
108 147 
108 148 
108 149 
108 150 
108 151 
108 152 
108 153 
108 154 
108 155 
109 110 
109 111 
109 112 
109 113 
109 114 
109 115 
109 116 
109 117 
109 118 
109 119 
109 122 
109 134 
109 145 
109 156 
109 157 
109 158 
109 159 
109 160 
109 161 
109 162 
109 163 
109 164 
109 165 
110 111 
110 112 
110 113 
110 114 
110 115 
110 116 
110 117 
110 118 
110 119 
110 123 
110 135 
110 146 
110 156 
110 166 
110 167 
110 168 
110 169 
110 170 
110 171 
110 172 
110 173 
110 174 
111 112 
111 113 
111 114 
111 115 
111 116 
111 117 
111 118 
111 119 
111 124 
111 136 
111 147 
111 157 
111 166 
111 175 
111 176 
111 177 
111 178 
111 179 
111 180 
111 181 
111 182 
112 113 
112 114 
112 115 
112 116 
112 117 
112 118 
112 119 
112 125 
112 137 
112 148 
112 158 
112 167 
112 175 
112 183 
112 184 
112 185 
112 186 
112 187 
112 188 
112 189 
113 114 
113 115 
113 116 
113 117 
113 118 
113 119 
113 126 
113 138 
113 149 
113 159 
113 168 
113 176 
113 183 
113 190 
113 191 
113 192 
113 193 
113 194 
113 195 
114 115 
114 116 
114 117 
114 118 
114 119 
114 127 
114 139 
114 150 
114 160 
114 169 
114 177 
114 184 
114 190 
114 196 
114 197 
114 198 
114 199 
114 200 
115 116 
115 117 
115 118 
115 119 
115 128 
115 140 
115 151 
115 161 
115 170 
115 178 
115 185 
115 191 
115 196 
115 201 
115 202 
115 203 
115 204 
116 117 
116 118 
116 119 
116 129 
116 141 
116 152 
116 162 
116 171 
116 179 
116 186 
116 192 
116 197 
116 201 
116 205 
116 206 
116 207 
117 118 
117 119 
117 130 
117 142 
117 153 
117 163 
117 172 
117 180 
117 187 
117 193 
117 198 
117 202 
117 205 
117 208 
117 209 
118 119 
118 131 
118 143 
118 154 
118 164 
118 173 
118 181 
118 188 
118 194 
118 199 
118 203 
118 206 
118 208 
118 210 
119 132 
119 144 
119 155 
119 165 
119 174 
119 182 
119 189 
119 195 
119 200 
119 204 
119 207 
119 209 
119 210 
120 121 
120 122 
120 123 
120 124 
120 125 
120 126 
120 127 
120 128 
120 129 
120 130 
120 131 
120 132 
120 133 
120 134 
120 135 
120 136 
120 137 
120 138 
120 139 
120 140 
120 141 
120 142 
120 143 
120 144 
121 122 
121 123 
121 124 
121 125 
121 126 
121 127 
121 128 
121 129 
121 130 
121 131 
121 132 
121 133 
121 145 
121 146 
121 147 
121 148 
121 149 
121 150 
121 151 
121 152 
121 153 
121 154 
121 155 
122 123 
122 124 
122 125 
122 126 
122 127 
122 128 
122 129 
122 130 
122 131 
122 132 
122 134 
122 145 
122 156 
122 157 
122 158 
122 159 
122 160 
122 161 
122 162 
122 163 
122 164 
122 165 
123 124 
123 125 
123 126 
123 127 
123 128 
123 129 
123 130 
123 131 
123 132 
123 135 
123 146 
123 156 
123 166 
123 167 
123 168 
123 169 
123 170 
123 171 
123 172 
123 173 
123 174 
124 125 
124 126 
124 127 
124 128 
124 129 
124 130 
124 131 
124 132 
124 136 
124 147 
124 157 
124 166 
124 175 
124 176 
124 177 
124 178 
124 179 
124 180 
124 181 
124 182 
125 126 
125 127 
125 128 
125 129 
125 130 
125 131 
125 132 
125 137 
125 148 
125 158 
125 167 
125 175 
125 183 
125 184 
125 185 
125 186 
125 187 
125 188 
125 189 
126 127 
126 128 
126 129 
126 130 
126 131 
126 132 
126 138 
126 149 
126 159 
126 168 
126 176 
126 183 
126 190 
126 191 
126 192 
126 193 
126 194 
126 195 
127 128 
127 129 
127 130 
127 131 
127 132 
127 139 
127 150 
127 160 
127 169 
127 177 
127 184 
127 190 
127 196 
127 197 
127 198 
127 199 
127 200 
128 129 
128 130 
128 131 
128 132 
128 140 
128 151 
128 161 
128 170 
128 178 
128 185 
128 191 
128 196 
128 201 
128 202 
128 203 
128 204 
129 130 
129 131 
129 132 
129 141 
129 152 
129 162 
129 171 
129 179 
129 186 
129 192 
129 197 
129 201 
129 205 
129 206 
129 207 
130 131 
130 132 
130 142 
130 153 
130 163 
130 172 
130 180 
130 187 
130 193 
130 198 
130 202 
130 205 
130 208 
130 209 
131 132 
131 143 
131 154 
131 164 
131 173 
131 181 
131 188 
131 194 
131 199 
131 203 
131 206 
131 208 
131 210 
132 144 
132 155 
132 165 
132 174 
132 182 
132 189 
132 195 
132 200 
132 204 
132 207 
132 209 
132 210 
133 134 
133 135 
133 136 
133 137 
133 138 
133 139 
133 140 
133 141 
133 142 
133 143 
133 144 
133 145 
133 146 
133 147 
133 148 
133 149 
133 150 
133 151 
133 152 
133 153 
133 154 
133 155 
134 135 
134 136 
134 137 
134 138 
134 139 
134 140 
134 141 
134 142 
134 143 
134 144 
134 145 
134 156 
134 157 
134 158 
134 159 
134 160 
134 161 
134 162 
134 163 
134 164 
134 165 
135 136 
135 137 
135 138 
135 139 
135 140 
135 141 
135 142 
135 143 
135 144 
135 146 
135 156 
135 166 
135 167 
135 168 
135 169 
135 170 
135 171 
135 172 
135 173 
135 174 
136 137 
136 138 
136 139 
136 140 
136 141 
136 142 
136 143 
136 144 
136 147 
136 157 
136 166 
136 175 
136 176 
136 177 
136 178 
136 179 
136 180 
136 181 
136 182 
137 138 
137 139 
137 140 
137 141 
137 142 
137 143 
137 144 
137 148 
137 158 
137 167 
137 175 
137 183 
137 184 
137 185 
137 186 
137 187 
137 188 
137 189 
138 139 
138 140 
138 141 
138 142 
138 143 
138 144 
138 149 
138 159 
138 168 
138 176 
138 183 
138 190 
138 191 
138 192 
138 193 
138 194 
138 195 
139 140 
139 141 
139 142 
139 143 
139 144 
139 150 
139 160 
139 169 
139 177 
139 184 
139 190 
139 196 
139 197 
139 198 
139 199 
139 200 
140 141 
140 142 
140 143 
140 144 
140 151 
140 161 
140 170 
140 178 
140 185 
140 191 
140 196 
140 201 
140 202 
140 203 
140 204 
141 142 
141 143 
141 144 
141 152 
141 162 
141 171 
141 179 
141 186 
141 192 
141 197 
141 201 
141 205 
141 206 
141 207 
142 143 
142 144 
142 153 
142 163 
142 172 
142 180 
142 187 
142 193 
142 198 
142 202 
142 205 
142 208 
142 209 
143 144 
143 154 
143 164 
143 173 
143 181 
143 188 
143 194 
143 199 
143 203 
143 206 
143 208 
143 210 
144 155 
144 165 
144 174 
144 182 
144 189 
144 195 
144 200 
144 204 
144 207 
144 209 
144 210 
145 146 
145 147 
145 148 
145 149 
145 150 
145 151 
145 152 
145 153 
145 154 
145 155 
145 156 
145 157 
145 158 
145 159 
145 160 
145 161 
145 162 
145 163 
145 164 
145 165 
146 147 
146 148 
146 149 
146 150 
146 151 
146 152 
146 153 
146 154 
146 155 
146 156 
146 166 
146 167 
146 168 
146 169 
146 170 
146 171 
146 172 
146 173 
146 174 
147 148 
147 149 
147 150 
147 151 
147 152 
147 153 
147 154 
147 155 
147 157 
147 166 
147 175 
147 176 
147 177 
147 178 
147 179 
147 180 
147 181 
147 182 
148 149 
148 150 
148 151 
148 152 
148 153 
148 154 
148 155 
148 158 
148 167 
148 175 
148 183 
148 184 
148 185 
148 186 
148 187 
148 188 
148 189 
149 150 
149 151 
149 152 
149 153 
149 154 
149 155 
149 159 
149 168 
149 176 
149 183 
149 190 
149 191 
149 192 
149 193 
149 194 
149 195 
150 151 
150 152 
150 153 
150 154 
150 155 
150 160 
150 169 
150 177 
150 184 
150 190 
150 196 
150 197 
150 198 
150 199 
150 200 
151 152 
151 153 
151 154 
151 155 
151 161 
151 170 
151 178 
151 185 
151 191 
151 196 
151 201 
151 202 
151 203 
151 204 
152 153 
152 154 
152 155 
152 162 
152 171 
152 179 
152 186 
152 192 
152 197 
152 201 
152 205 
152 206 
152 207 
153 154 
153 155 
153 163 
153 172 
153 180 
153 187 
153 193 
153 198 
153 202 
153 205 
153 208 
153 209 
154 155 
154 164 
154 173 
154 181 
154 188 
154 194 
154 199 
154 203 
154 206 
154 208 
154 210 
155 165 
155 174 
155 182 
155 189 
155 195 
155 200 
155 204 
155 207 
155 209 
155 210 
156 157 
156 158 
156 159 
156 160 
156 161 
156 162 
156 163 
156 164 
156 165 
156 166 
156 167 
156 168 
156 169 
156 170 
156 171 
156 172 
156 173 
156 174 
157 158 
157 159 
157 160 
157 161 
157 162 
157 163 
157 164 
157 165 
157 166 
157 175 
157 176 
157 177 
157 178 
157 179 
157 180 
157 181 
157 182 
158 159 
158 160 
158 161 
158 162 
158 163 
158 164 
158 165 
158 167 
158 175 
158 183 
158 184 
158 185 
158 186 
158 187 
158 188 
158 189 
159 160 
159 161 
159 162 
159 163 
159 164 
159 165 
159 168 
159 176 
159 183 
159 190 
159 191 
159 192 
159 193 
159 194 
159 195 
160 161 
160 162 
160 163 
160 164 
160 165 
160 169 
160 177 
160 184 
160 190 
160 196 
160 197 
160 198 
160 199 
160 200 
161 162 
161 163 
161 164 
161 165 
161 170 
161 178 
161 185 
161 191 
161 196 
161 201 
161 202 
161 203 
161 204 
162 163 
162 164 
162 165 
162 171 
162 179 
162 186 
162 192 
162 197 
162 201 
162 205 
162 206 
162 207 
163 164 
163 165 
163 172 
163 180 
163 187 
163 193 
163 198 
163 202 
163 205 
163 208 
163 209 
164 165 
164 173 
164 181 
164 188 
164 194 
164 199 
164 203 
164 206 
164 208 
164 210 
165 174 
165 182 
165 189 
165 195 
165 200 
165 204 
165 207 
165 209 
165 210 
166 167 
166 168 
166 169 
166 170 
166 171 
166 172 
166 173 
166 174 
166 175 
166 176 
166 177 
166 178 
166 179 
166 180 
166 181 
166 182 
167 168 
167 169 
167 170 
167 171 
167 172 
167 173 
167 174 
167 175 
167 183 
167 184 
167 185 
167 186 
167 187 
167 188 
167 189 
168 169 
168 170 
168 171 
168 172 
168 173 
168 174 
168 176 
168 183 
168 190 
168 191 
168 192 
168 193 
168 194 
168 195 
169 170 
169 171 
169 172 
169 173 
169 174 
169 177 
169 184 
169 190 
169 196 
169 197 
169 198 
169 199 
169 200 
170 171 
170 172 
170 173 
170 174 
170 178 
170 185 
170 191 
170 196 
170 201 
170 202 
170 203 
170 204 
171 172 
171 173 
171 174 
171 179 
171 186 
171 192 
171 197 
171 201 
171 205 
171 206 
171 207 
172 173 
172 174 
172 180 
172 187 
172 193 
172 198 
172 202 
172 205 
172 208 
172 209 
173 174 
173 181 
173 188 
173 194 
173 199 
173 203 
173 206 
173 208 
173 210 
174 182 
174 189 
174 195 
174 200 
174 204 
174 207 
174 209 
174 210 
175 176 
175 177 
175 178 
175 179 
175 180 
175 181 
175 182 
175 183 
175 184 
175 185 
175 186 
175 187 
175 188 
175 189 
176 177 
176 178 
176 179 
176 180 
176 181 
176 182 
176 183 
176 190 
176 191 
176 192 
176 193 
176 194 
176 195 
177 178 
177 179 
177 180 
177 181 
177 182 
177 184 
177 190 
177 196 
177 197 
177 198 
177 199 
177 200 
178 179 
178 180 
178 181 
178 182 
178 185 
178 191 
178 196 
178 201 
178 202 
178 203 
178 204 
179 180 
179 181 
179 182 
179 186 
179 192 
179 197 
179 201 
179 205 
179 206 
179 207 
180 181 
180 182 
180 187 
180 193 
180 198 
180 202 
180 205 
180 208 
180 209 
181 182 
181 188 
181 194 
181 199 
181 203 
181 206 
181 208 
181 210 
182 189 
182 195 
182 200 
182 204 
182 207 
182 209 
182 210 
183 184 
183 185 
183 186 
183 187 
183 188 
183 189 
183 190 
183 191 
183 192 
183 193 
183 194 
183 195 
184 185 
184 186 
184 187 
184 188 
184 189 
184 190 
184 196 
184 197 
184 198 
184 199 
184 200 
185 186 
185 187 
185 188 
185 189 
185 191 
185 196 
185 201 
185 202 
185 203 
185 204 
186 187 
186 188 
186 189 
186 192 
186 197 
186 201 
186 205 
186 206 
186 207 
187 188 
187 189 
187 193 
187 198 
187 202 
187 205 
187 208 
187 209 
188 189 
188 194 
188 199 
188 203 
188 206 
188 208 
188 210 
189 195 
189 200 
189 204 
189 207 
189 209 
189 210 
190 191 
190 192 
190 193 
190 194 
190 195 
190 196 
190 197 
190 198 
190 199 
190 200 
191 192 
191 193 
191 194 
191 195 
191 196 
191 201 
191 202 
191 203 
191 204 
192 193 
192 194 
192 195 
192 197 
192 201 
192 205 
192 206 
192 207 
193 194 
193 195 
193 198 
193 202 
193 205 
193 208 
193 209 
194 195 
194 199 
194 203 
194 206 
194 208 
194 210 
195 200 
195 204 
195 207 
195 209 
195 210 
196 197 
196 198 
196 199 
196 200 
196 201 
196 202 
196 203 
196 204 
197 198 
197 199 
197 200 
197 201 
197 205 
197 206 
197 207 
198 199 
198 200 
198 202 
198 205 
198 208 
198 209 
199 200 
199 203 
199 206 
199 208 
199 210 
200 204 
200 207 
200 209 
200 210 
201 202 
201 203 
201 204 
201 205 
201 206 
201 207 
202 203 
202 204 
202 205 
202 208 
202 209 
203 204 
203 206 
203 208 
203 210 
204 207 
204 209 
204 210 
205 206 
205 207 
205 208 
205 209 
206 207 
206 208 
206 210 
207 209 
207 210 
208 209 
208 210 
209 210 
